
Gurobi 11.0.1 (win64) logging started Wed May 15 14:52:49 2024

Set parameter LogFile to value "output/solver_log31.txt"
Gurobi Optimizer version 11.0.1 build v11.0.1rc0 (win64 - Windows 11.0 (22631.2))

CPU model: 11th Gen Intel(R) Core(TM) i7-1165G7 @ 2.80GHz, instruction set [SSE2|AVX|AVX2|AVX512]
Thread count: 4 physical cores, 8 logical processors, using up to 8 threads

Optimize a model with 2376 rows, 530 columns and 44980 nonzeros
Model fingerprint: 0xb9510d05
Variable types: 248 continuous, 282 integer (282 binary)
Coefficient statistics:
  Matrix range     [4e-01, 1e+05]
  Objective range  [1e+00, 1e+02]
  Bounds range     [1e+00, 1e+00]
  RHS range        [1e-02, 1e+05]

User MIP start produced solution with objective 39903.5 (0.00s)
User MIP start produced solution with objective 39903.5 (0.01s)
Loaded user MIP start with objective 39903.5

Presolve removed 131 rows and 132 columns
Presolve time: 0.04s
Presolved: 2245 rows, 398 columns, 43926 nonzeros
Variable types: 234 continuous, 164 integer (160 binary)

Root relaxation: objective 4.640900e+04, 796 iterations, 0.05 seconds (0.09 work units)

    Nodes    |    Current Node    |     Objective Bounds      |     Work
 Expl Unexpl |  Obj  Depth IntInf | Incumbent    BestBd   Gap | It/Node Time

     0     0 46408.9996    0   20 39903.4604 46408.9996  16.3%     -    0s
     0     0 46196.6501    0   16 39903.4604 46196.6501  15.8%     -    0s
     0     0 45479.5872    0   26 39903.4604 45479.5872  14.0%     -    0s
     0     0 44982.6309    0   26 39903.4604 44982.6309  12.7%     -    0s
     0     0 43445.9212    0   25 39903.4604 43445.9212  8.88%     -    0s
     0     0 43167.4361    0   30 39903.4604 43167.4361  8.18%     -    0s
     0     0 42960.4949    0   26 39903.4604 42960.4949  7.66%     -    0s
     0     0 42948.8083    0   25 39903.4604 42948.8083  7.63%     -    0s
     0     0 42946.2157    0   27 39903.4604 42946.2157  7.63%     -    0s
     0     0 42944.5413    0   25 39903.4604 42944.5413  7.62%     -    0s
     0     0 42663.3371    0   36 39903.4604 42663.3371  6.92%     -    0s
     0     0 42626.9507    0   27 39903.4604 42626.9507  6.83%     -    0s
     0     0 42626.3343    0   33 39903.4604 42626.3343  6.82%     -    1s
     0     0 42625.6068    0   33 39903.4604 42625.6068  6.82%     -    1s
     0     0 42625.6026    0   34 39903.4604 42625.6026  6.82%     -    1s
     0     0 42244.2231    0   32 39903.4604 42244.2231  5.87%     -    1s
     0     0 42191.5747    0   38 39903.4604 42191.5747  5.73%     -    1s
     0     0 42191.5747    0   40 39903.4604 42191.5747  5.73%     -    1s
     0     0 42043.9268    0   32 39903.4604 42043.9268  5.36%     -    1s
     0     0 42039.9022    0   36 39903.4604 42039.9022  5.35%     -    1s
     0     0 42035.1658    0   34 39903.4604 42035.1658  5.34%     -    1s
     0     0 41888.7097    0   39 39903.4604 41888.7097  4.98%     -    1s
     0     0 41886.1232    0   38 39903.4604 41886.1232  4.97%     -    1s
     0     0 41884.6379    0   36 39903.4604 41884.6379  4.96%     -    1s
     0     0 41875.1256    0   37 39903.4604 41875.1256  4.94%     -    1s
     0     0 41844.9537    0   38 39903.4604 41844.9537  4.87%     -    1s
     0     0 41843.4183    0   42 39903.4604 41843.4183  4.86%     -    2s
     0     0 41843.4183    0   42 39903.4604 41843.4183  4.86%     -    2s
     0     2 41843.4183    0   42 39903.4604 41843.4183  4.86%     -    2s
H  259   194                    39908.429082 41843.4183  4.85%   121    3s
*  440   301              62    39908.711992 41843.4183  4.85%  87.3    4s
H  446   294                    39908.769566 41843.4183  4.85%  88.5    4s
H  475   321                    39908.911349 39914.7125  0.01%  85.5    4s
*  944   519              72    39908.979908 39914.7001  0.01%  52.7    4s
*  946   516              70    39909.086413 39914.7001  0.01%  52.8    4s
   994   622 39913.2596  242    7 39909.0864 39914.7001  0.01%  54.9    5s
H 1390   685                    39909.182364 39914.7001  0.01%  45.9    5s
* 2009   309             327    39913.152647 39914.7001  0.00%  32.1    5s

Cutting planes:
  Implied bound: 4
  MIR: 26
  RLT: 6

Explored 2076 nodes (81547 simplex iterations) in 5.40 seconds (9.31 work units)
Thread count was 8 (of 8 available processors)

Solution count 10: 39913.2 39913.2 39909.2 ... 39903.5

Optimal solution found (tolerance 1.00e-04)
Best objective 3.991315264739e+04, best bound 3.991470012158e+04, gap 0.0039%
